
  32   50
  16    9    5   20    7   14   12    2    5   14   12   11   10    6   10   11   13    5   13    7   10    9   13    9    9    8    7    6    8    5    3    9    0    0    0    0    0    0    0    0    0    0    0    0    0    0    0    0    0    0

   0   0   0   0   0   0   0   0   0   0   0   0   0   0   0   0   0   0   0   0   0   0   0   0   0   0   0   0   0   0   0   0   0   0   0   0   0   0   0   0   0   0   0   0   0   0   0   0   0   0   0  11 2 3 4 5 6 8 11 12 13 19 20 
  10   0   0   0   1   0   0   0   0   0   0   7   0   0   0   0   0   5   0   7   0   0   0   0   0   0   2   0   0   0   1   0   0   0   0   0   0   0   0   0   0   0   0   0   0   0   0   0   0   0   0   6 30 27 18 16 15 9 
   8   0   0   0   0   0   0   0   0   0   0   0   0   0   0   0   0   0   5   0   0   0   2   0   0   0   0   0   0   0   0   0   0   0   0   0   0   0   0   0   0   0   0   0   0   0   0   0   0   0   0   5 17 16 14 10 7 
   7   2   2   0   1   0   0   0   0   0   0   0   0   0   0   6   0   0   0   0   4   0   0   0   0   0   2   2   0   0   0   0   0   0   0   0   0   0   0   0   0   0   0   0   0   0   0   0   0   0   0   6 30 28 17 16 15 14 
   8   0   0   0   0   0   7   0   2   0   0   0   0   0   0   0   0   0   0   0   0   0   0   0   1   0   0   0   0   4   0   1   0   0   0   0   0   0   0   0   0   0   0   0   0   0   0   0   0   0   0   7 30 28 27 26 25 22 16 
   3   7   8   4   0   5   0   0   0   0   0   0   0   0   0   1   0   0   0   0   0   0   0   4   0   0   0   0   0   0   0   0   0   0   0   0   0   0   0   0   0   0   0   0   0   0   0   0   0   0   0   4 29 27 21 14 
   4   0   0   0   0   2   5   0   0   0   0   7   0   0   0  10   0   0   0   0   0   0   9   7   5   0   0   0   0   0   5   0   0   0   0   0   0   0   0   0   0   0   0   0   0   0   0   0   0   0   0   6 30 28 26 25 22 21 
  10   5   0   0   0   0   0   0   0   0   0   0   0   0   0   0   0   0   0   0   4   0   0   0   2   0   0   0   0   0   0   0   0   0   0   0   0   0   0   0   0   0   0   0   0   0   0   0   0   0   0   4 29 28 24 14 
   9   6   3   0   0   0   0   0   0   0  10   0   0   0   0   0   0   0   0   0   0   0   0   0   0   0   0   0   0   7   0   0   0   0   0   0   0   0   0   0   0   0   0   0   0   0   0   0   0   0   0   3 28 24 14 
   3   0   0   0   0   0   0   0   0   0   0   0   0   7   0   0   2   0   0   0   0   0   0   9   0   0   0   0   0   0   0   0   0   0   0   0   0   0   0   0   0   0   0   0   0   0   0   0   0   0   0   5 31 28 27 26 21 
   9   0   0   0   0   0   0   0   0   0   0   0   0   0   0   1   0   0   0   0   0   0   0   0   0   0   0   0   0   0   0   0   0   0   0   0   0   0   0   0   0   0   0   0   0   0   0   0   0   0   0   5 29 27 25 23 21 
   6   6   0   0   0   0   0   0   0   0   0   0   0   0   0   0   9   8   1   0   0   0   0   0   0   0   0   0   5   0   0   0   0   0   0   0   0   0   0   0   0   0   0   0   0   0   0   0   0   0   0   4 31 25 24 17 
   7   0   0   0   0   0   8   0   0   0   0   0   0   0   6   0   0   0   0   0   0   0   0   3   0   0   0   0   0   2   0   0   0   0   0   0   0   0   0   0   0   0   0   0   0   0   0   0   0   0   0   4 26 25 22 21 
   2   0   0   0   0   0   0   0   0   0   0   0   0   0   0   0   0   0   0   0   1   0   0   0   0   0   0   0   0   0   0   0   0   0   0   0   0   0   0   0   0   0   0   0   0   0   0   0   0   0   0   3 26 25 22 
   7   0   0   5   0   0   0   0   0   0   0   0   0   0   0   0   0   0   0   0   0   0   0   0   0   0   0   0   0   0   0   0   0   0   0   0   0   0   0   0   0   0   0   0   0   0   0   0   0   0   0   3 29 25 23 
   8   0   0   0   6   0   0   0   0   0   4   0   0   5   0   0   0   2   0   0   6   7   0   0   0   0   7   0   0   0   0   0   0   0   0   0   0   0   0   0   0   0   0   0   0   0   0   0   0   0   0   2 23 21 
   1   0   0   0   0   0   9   0   0   0   0   0   0   0   0   0   0   0   0   9   0   0   0   0   0   0   0   0   0   0   0   0   0   0   0   0   0   0   0   0   0   0   0   0   0   0   0   0   0   0   0   2 27 23 
   7   0   0   0   0   6   0   4   0   0   3   0   0   0   0   0  10   0   0   0   0   0   0   0   6   6   0   7   0   0   0   0   0   0   0   0   0   0   0   0   0   0   0   0   0   0   0   0   0   0   0   2 29 23 
   2   0   0   0   0   0   0   0   0   0   0   8   0   0   0   0   0   3   0   0   0   0   0   5   0   3   0   0   0   0   0   0   0   0   0   0   0   0   0   0   0   0   0   0   0   0   0   0   0   0   0   2 25 23 
  10   1   0   0   0   0   3   0   0   0   0   0   0   0   0   0   0   0   0   0   0  10   0   0   0   0   0   0   1   4   0   0   9   0   0   0   0   0   0   0   0   0   0   0   0   0   0   0   0   0   0   1 21 
   4   0   0   0   6   0   0   0   0   0   0   0   7   0   0   0   0   0   0   0   0   8   0   0   0   0   0   0   0   0   0   0   0   0   0   0   0   0   0   0   0   0   0   0   0   0   0   0   0   0   0   1 24 
   8   0   0   0  10   0   0   0   0   0   0   0   0   0   0   6   0   0   0   0   0   0   0   0   2   0   0   0   6   3   0   0   0   0   0   0   0   0   0   0   0   0   0   0   0   0   0   0   0   0   0   1 23 
   7   0   0   0   0   0   0   0   0   5   0   0   8   0   0   0   0   0   5   3   0   0   0   0   0   0   0   0   0   0   5   0   0   0   0   0   0   0   0   0   0   0   0   0   0   0   0   0   0   0   0   1 32
   4   0   6   0   0   0   0   0   0   0   0   0   0   0   0   0   0   0   3   0   0  10   0   0   0   0   0   0   0   0   0   0   0   0   0   0   0   0   0   0   0   0   0   0   0   0   0   0   0   0   0   1 32
   7   9   5   0   0   0   0   0   0   0   0   0   6   0   0   0   0   0   0   0   0   0   0   0   0   0   0   0   0   0   0   0   0   0   0   0   0   0   0   0   0   0   0   0   0   0   0   0   0   0   0   1 32
  10   0   0   0   0   0   3   0   0   0   0   0   0   0   0   0   0   0   0   0   0   0   0   0   0   9   0   0   0   0   0   0   0   0   0   0   0   0   0   0   0   0   0   0   0   0   0   0   0   0   0   1 32
   3   0   0   0  10   0   0   8   0   0   0   0   0   0   0   0   0   0   0   0   0   0   0   0   0   0   0   0   0   0   0   0   0   0   0   0   0   0   0   0   0   0   0   0   0   0   0   0   0   0   0   1 32
   4   0   0   0   0   0   0   0   0   0   0   0   0   0   0   0   0   0   0   0   0   0   3   0   0   0   0   0   0   7   0   0   0   0   0   0   0   0   0   0   0   0   0   0   0   0   0   0   0   0   0   1 32
   8   0   0   0  10   0   0   0   0   0   0   0   0   0   0   0   0   0   0   0   0   0   0   0   0   0   2   0   0   0   0   3   0   0   0   0   0   0   0   0   0   0   0   0   0   0   0   0   0   0   0   1 32
   9   0   0   0   0   0   0   0   0   0   0   0   3   0   0   7   0   9   0   0   0   0   0   0   0   0   0   0   0   0   0   0   4   0   0   0   0   0   0   0   0   0   0   0   0   0   0   0   0   0   0   1 32
   7   0   0   0   0   0   0   3   0   0   0   0   0   7   6   0   0   0   0   0   0   0   0   5   0   0   0   0   0   0   0   0   0   0   0   0   0   0   0   0   0   0   0   0   0   0   0   0   0   0   0   1 32
   0   0   0   0   0   0   0   0   0   0   0   0   0   0   0   0   0   0   0   0   0   0   0   0   0   0   0   0   0   0   0   0   0   0   0   0   0   0   0   0   0   0   0   0   0   0   0   0   0   0   0   0 
